************************************************************************
file with basedata            : j60_21.bas
initial value random generator: 12471
************************************************************************
projects                      :  1
jobs (incl. supersource/sink ):  62
horizon                       :  284
RESOURCES
  - renewable                 :  4   R
  - nonrenewable              :  0   N
  - doubly constrained        :  0   D
************************************************************************
PROJECT INFORMATION:
pronr.  #jobs rel.date duedate tardcost  MPM-Time
    1     60      0       59        9       59
************************************************************************
PRECEDENCE RELATIONS:
jobnr.    #modes  #successors   successors
   1        1          3           2   3   4
   2        1          3           6  10  46
   3        1          1          25
   4        1          3           5  13  16
   5        1          2           7  12
   6        1          3           8  11  17
   7        1          3           9  36  47
   8        1          3          30  39  45
   9        1          3          25  26  44
  10        1          1          33
  11        1          1          22
  12        1          2          14  15
  13        1          2          20  31
  14        1          3          19  52  56
  15        1          2          24  41
  16        1          3          18  23  35
  17        1          2          21  22
  18        1          1          51
  19        1          1          32
  20        1          1          53
  21        1          2          24  32
  22        1          1          29
  23        1          1          28
  24        1          1          38
  25        1          1          27
  26        1          1          30
  27        1          2          34  59
  28        1          1          49
  29        1          1          55
  30        1          1          40
  31        1          1          37
  32        1          1          47
  33        1          1          42
  34        1          1          56
  35        1          2          39  50
  36        1          1          41
  37        1          1          43
  38        1          1          54
  39        1          1          52
  40        1          2          50  58
  41        1          2          43  55
  42        1          1          59
  43        1          2          50  61
  44        1          1          48
  45        1          1          60
  46        1          2          48  59
  47        1          1          53
  48        1          1          52
  49        1          1          53
  50        1          1          57
  51        1          1          54
  52        1          1          58
  53        1          1          57
  54        1          2          58  60
  55        1          2          56  61
  56        1          1          57
  57        1          1          60
  58        1          1          61
  59        1          1          62
  60        1          1          62
  61        1          1          62
  62        1          0        
************************************************************************
REQUESTS/DURATIONS:
jobnr. mode duration  R 1  R 2  R 3  R 4
------------------------------------------------------------------------
  1      1     0       0    0    0    0
  2      1     2       0    2    1    4
  3      1     6       8    3   10    7
  4      1     7       6    8    8    0
  5      1     2       0    5    0    7
  6      1     9       0    9    5   10
  7      1     1       0    1    0    0
  8      1     6       7    1    5    0
  9      1     8       0    0    0    4
 10      1     5       0    5    0    0
 11      1     4       5    8    0    0
 12      1     1       0    0    0    7
 13      1     6       0    7    0    9
 14      1     4       0    7    6    0
 15      1    10       6   10    6    0
 16      1     5      10    0    0    5
 17      1     2       0    0    2    6
 18      1     2       0    0    1    2
 19      1     4       4    0    8    0
 20      1     2       2    0    0    3
 21      1     5       0    2    0   10
 22      1     2       0    3    0    9
 23      1     5       1    0    5    0
 24      1     8       7    0    1    5
 25      1     4       0    0    6   10
 26      1     6       0    9    0    8
 27      1     7       0    0    8    6
 28      1     3       0    8    0    0
 29      1    10       0    0    2    0
 30      1     7       0    6    9    3
 31      1     4       0    6    1    7
 32      1     6       0    8    0    0
 33      1     8       4    9    6    0
 34      1     7       0    0    0    5
 35      1     3       4    0    7    6
 36      1     2       0    8    0    3
 37      1     6       7    0    0   10
 38      1     3      10    4    0    0
 39      1     5       0    5    0    0
 40      1     8       0    0    6    5
 41      1     1       0    8    3    0
 42      1     7       0    0    8    2
 43      1     4      10    0    0    0
 44      1     2       8    0    0    9
 45      1     1       7    7    0   10
 46      1     3       0    1    0    0
 47      1     5       0    0    0    9
 48      1     4       0    0    0    7
 49      1     4       0    2    0    0
 50      1    10       4    4    8    0
 51      1     2       4    0    9    0
 52      1     3       0    3    0    3
 53      1     6       0   10    4    5
 54      1    10       6    2    3    0
 55      1     4       0    0    0    1
 56      1     1       7    0    6   10
 57      1     3       7    9    5    0
 58      1     6      10    2    0    0
 59      1     4       0    0    0    6
 60      1     7       0    0    4    0
 61      1     2       9    0    0    2
 62      1     0       0    0    0    0
************************************************************************
RESOURCEAVAILABILITIES:
  R 1  R 2  R 3  R 4
   15   18   17   16
************************************************************************
